7
13
0 32 50 16 11 57 37 64 65 10 52 25 5
9
0 75 34 13 58 6 66 74 67
10
0 62 49 24 54 17 23 48 22 55
11
0 61 73 20 68 60 21 63 41 40 42
15
0 72 1 47 4 56 14 36 19 69 59 70 35 46 27
13
0 3 51 33 45 7 18 53 12 26 44 28 29
11
0 39 71 9 30 38 8 31 43 2 15
